c File: flat50_3_0.col
c
c SOURCE: Joseph Culberson (joe@cs.ualberta.ca)
c DESCRIPTION: Quasi-random coloring problem
c              generated with flatness = 0
c                             probability = 0.139
c                             known coloring = 3
c                             random seed = 1514
c              Creation Date:  Tue Jun  9 12:11:10 1998
c Maximum degree = 8 Minimum degree = 1
c p edge 50 115
c cnf created by edge2cnf
p cnf 150 545
-1 -2 0
-1 -3 0
-2 -3 0
1 2 3 0
-4 -5 0
-4 -6 0
-5 -6 0
4 5 6 0
-7 -8 0
-7 -9 0
-8 -9 0
7 8 9 0
-10 -11 0
-10 -12 0
-11 -12 0
10 11 12 0
-13 -14 0
-13 -15 0
-14 -15 0
13 14 15 0
-16 -17 0
-16 -18 0
-17 -18 0
16 17 18 0
-19 -20 0
-19 -21 0
-20 -21 0
19 20 21 0
-22 -23 0
-22 -24 0
-23 -24 0
22 23 24 0
-25 -26 0
-25 -27 0
-26 -27 0
25 26 27 0
-28 -29 0
-28 -30 0
-29 -30 0
28 29 30 0
-31 -32 0
-31 -33 0
-32 -33 0
31 32 33 0
-34 -35 0
-34 -36 0
-35 -36 0
34 35 36 0
-37 -38 0
-37 -39 0
-38 -39 0
37 38 39 0
-40 -41 0
-40 -42 0
-41 -42 0
40 41 42 0
-43 -44 0
-43 -45 0
-44 -45 0
43 44 45 0
-46 -47 0
-46 -48 0
-47 -48 0
46 47 48 0
-49 -50 0
-49 -51 0
-50 -51 0
49 50 51 0
-52 -53 0
-52 -54 0
-53 -54 0
52 53 54 0
-55 -56 0
-55 -57 0
-56 -57 0
55 56 57 0
-58 -59 0
-58 -60 0
-59 -60 0
58 59 60 0
-61 -62 0
-61 -63 0
-62 -63 0
61 62 63 0
-64 -65 0
-64 -66 0
-65 -66 0
64 65 66 0
-67 -68 0
-67 -69 0
-68 -69 0
67 68 69 0
-70 -71 0
-70 -72 0
-71 -72 0
70 71 72 0
-73 -74 0
-73 -75 0
-74 -75 0
73 74 75 0
-76 -77 0
-76 -78 0
-77 -78 0
76 77 78 0
-79 -80 0
-79 -81 0
-80 -81 0
79 80 81 0
-82 -83 0
-82 -84 0
-83 -84 0
82 83 84 0
-85 -86 0
-85 -87 0
-86 -87 0
85 86 87 0
-88 -89 0
-88 -90 0
-89 -90 0
88 89 90 0
-91 -92 0
-91 -93 0
-92 -93 0
91 92 93 0
-94 -95 0
-94 -96 0
-95 -96 0
94 95 96 0
-97 -98 0
-97 -99 0
-98 -99 0
97 98 99 0
-100 -101 0
-100 -102 0
-101 -102 0
100 101 102 0
-103 -104 0
-103 -105 0
-104 -105 0
103 104 105 0
-106 -107 0
-106 -108 0
-107 -108 0
106 107 108 0
-109 -110 0
-109 -111 0
-110 -111 0
109 110 111 0
-112 -113 0
-112 -114 0
-113 -114 0
112 113 114 0
-115 -116 0
-115 -117 0
-116 -117 0
115 116 117 0
-118 -119 0
-118 -120 0
-119 -120 0
118 119 120 0
-121 -122 0
-121 -123 0
-122 -123 0
121 122 123 0
-124 -125 0
-124 -126 0
-125 -126 0
124 125 126 0
-127 -128 0
-127 -129 0
-128 -129 0
127 128 129 0
-130 -131 0
-130 -132 0
-131 -132 0
130 131 132 0
-133 -134 0
-133 -135 0
-134 -135 0
133 134 135 0
-136 -137 0
-136 -138 0
-137 -138 0
136 137 138 0
-139 -140 0
-139 -141 0
-140 -141 0
139 140 141 0
-142 -143 0
-142 -144 0
-143 -144 0
142 143 144 0
-145 -146 0
-145 -147 0
-146 -147 0
145 146 147 0
-148 -149 0
-148 -150 0
-149 -150 0
148 149 150 0
-61 -1 0
-62 -2 0
-63 -3 0
-79 -1 0
-80 -2 0
-81 -3 0
-88 -1 0
-89 -2 0
-90 -3 0
-94 -1 0
-95 -2 0
-96 -3 0
-109 -1 0
-110 -2 0
-111 -3 0
-136 -1 0
-137 -2 0
-138 -3 0
-145 -1 0
-146 -2 0
-147 -3 0
-52 -4 0
-53 -5 0
-54 -6 0
-82 -4 0
-83 -5 0
-84 -6 0
-100 -4 0
-101 -5 0
-102 -6 0
-127 -4 0
-128 -5 0
-129 -6 0
-133 -4 0
-134 -5 0
-135 -6 0
-61 -7 0
-62 -8 0
-63 -9 0
-76 -7 0
-77 -8 0
-78 -9 0
-94 -7 0
-95 -8 0
-96 -9 0
-109 -7 0
-110 -8 0
-111 -9 0
-112 -7 0
-113 -8 0
-114 -9 0
-67 -10 0
-68 -11 0
-69 -12 0
-88 -10 0
-89 -11 0
-90 -12 0
-133 -10 0
-134 -11 0
-135 -12 0
-142 -10 0
-143 -11 0
-144 -12 0
-94 -13 0
-95 -14 0
-96 -15 0
-103 -13 0
-104 -14 0
-105 -15 0
-142 -13 0
-143 -14 0
-144 -15 0
-73 -16 0
-74 -17 0
-75 -18 0
-85 -16 0
-86 -17 0
-87 -18 0
-97 -16 0
-98 -17 0
-99 -18 0
-109 -16 0
-110 -17 0
-111 -18 0
-115 -16 0
-116 -17 0
-117 -18 0
-139 -16 0
-140 -17 0
-141 -18 0
-61 -19 0
-62 -20 0
-63 -21 0
-124 -19 0
-125 -20 0
-126 -21 0
-130 -22 0
-131 -23 0
-132 -24 0
-64 -25 0
-65 -26 0
-66 -27 0
-70 -25 0
-71 -26 0
-72 -27 0
-103 -25 0
-104 -26 0
-105 -27 0
-106 -25 0
-107 -26 0
-108 -27 0
-112 -25 0
-113 -26 0
-114 -27 0
-55 -28 0
-56 -29 0
-57 -30 0
-73 -28 0
-74 -29 0
-75 -30 0
-88 -28 0
-89 -29 0
-90 -30 0
-136 -28 0
-137 -29 0
-138 -30 0
-58 -31 0
-59 -32 0
-60 -33 0
-100 -31 0
-101 -32 0
-102 -33 0
-139 -31 0
-140 -32 0
-141 -33 0
-58 -34 0
-59 -35 0
-60 -36 0
-67 -34 0
-68 -35 0
-69 -36 0
-79 -34 0
-80 -35 0
-81 -36 0
-115 -34 0
-116 -35 0
-117 -36 0
-127 -34 0
-128 -35 0
-129 -36 0
-73 -37 0
-74 -38 0
-75 -39 0
-85 -37 0
-86 -38 0
-87 -39 0
-88 -37 0
-89 -38 0
-90 -39 0
-115 -37 0
-116 -38 0
-117 -39 0
-133 -37 0
-134 -38 0
-135 -39 0
-58 -40 0
-59 -41 0
-60 -42 0
-61 -40 0
-62 -41 0
-63 -42 0
-97 -40 0
-98 -41 0
-99 -42 0
-100 -40 0
-101 -41 0
-102 -42 0
-103 -40 0
-104 -41 0
-105 -42 0
-106 -40 0
-107 -41 0
-108 -42 0
-124 -40 0
-125 -41 0
-126 -42 0
-55 -43 0
-56 -44 0
-57 -45 0
-70 -43 0
-71 -44 0
-72 -45 0
-97 -43 0
-98 -44 0
-99 -45 0
-124 -43 0
-125 -44 0
-126 -45 0
-133 -43 0
-134 -44 0
-135 -45 0
-136 -43 0
-137 -44 0
-138 -45 0
-103 -46 0
-104 -47 0
-105 -48 0
-127 -46 0
-128 -47 0
-129 -48 0
-130 -46 0
-131 -47 0
-132 -48 0
-139 -46 0
-140 -47 0
-141 -48 0
-55 -49 0
-56 -50 0
-57 -51 0
-64 -49 0
-65 -50 0
-66 -51 0
-73 -49 0
-74 -50 0
-75 -51 0
-106 -49 0
-107 -50 0
-108 -51 0
-115 -49 0
-116 -50 0
-117 -51 0
-136 -49 0
-137 -50 0
-138 -51 0
-148 -52 0
-149 -53 0
-150 -54 0
-118 -55 0
-119 -56 0
-120 -57 0
-139 -55 0
-140 -56 0
-141 -57 0
-142 -55 0
-143 -56 0
-144 -57 0
-145 -55 0
-146 -56 0
-147 -57 0
-115 -58 0
-116 -59 0
-117 -60 0
-139 -58 0
-140 -59 0
-141 -60 0
-121 -61 0
-122 -62 0
-123 -63 0
-142 -61 0
-143 -62 0
-144 -63 0
-106 -67 0
-107 -68 0
-108 -69 0
-124 -67 0
-125 -68 0
-126 -69 0
-130 -67 0
-131 -68 0
-132 -69 0
-109 -70 0
-110 -71 0
-111 -72 0
-133 -70 0
-134 -71 0
-135 -72 0
-139 -70 0
-140 -71 0
-141 -72 0
-142 -70 0
-143 -71 0
-144 -72 0
-112 -76 0
-113 -77 0
-114 -78 0
-127 -76 0
-128 -77 0
-129 -78 0
-133 -76 0
-134 -77 0
-135 -78 0
-118 -79 0
-119 -80 0
-120 -81 0
-130 -79 0
-131 -80 0
-132 -81 0
-121 -82 0
-122 -83 0
-123 -84 0
-127 -82 0
-128 -83 0
-129 -84 0
-139 -82 0
-140 -83 0
-141 -84 0
-124 -85 0
-125 -86 0
-126 -87 0
-142 -85 0
-143 -86 0
-144 -87 0
-124 -88 0
-125 -89 0
-126 -90 0
-127 -91 0
-128 -92 0
-129 -93 0
-136 -91 0
-137 -92 0
-138 -93 0
-115 -94 0
-116 -95 0
-117 -96 0
-118 -97 0
-119 -98 0
-120 -99 0
-121 -97 0
-122 -98 0
-123 -99 0
-124 -97 0
-125 -98 0
-126 -99 0
-133 -97 0
-134 -98 0
-135 -99 0
-112 -100 0
-113 -101 0
-114 -102 0
-118 -100 0
-119 -101 0
-120 -102 0
-133 -100 0
-134 -101 0
-135 -102 0
